51	3

10	12	12	

0	0	0	0	3	2	3	4	
5	5	2	2	3	5	7	9	
2	3	5	2	2	5	6	
1	5	4	3	2	5	6	
5	5	5	4	2	8	12	
2	4	1	4	2	8	12	
1	3	5	2	2	8	10	
9	3	2	2	1	13	
1	2	4	4	2	11	12	
7	4	1	4	1	14	
6	3	2	4	2	14	17	
1	3	3	2	1	15	
1	1	4	4	1	16	
4	2	2	2	1	18	
4	5	5	4	1	18	
6	5	3	3	1	20	
2	1	5	4	1	19	
3	3	2	3	1	20	
2	4	5	4	2	20	21	
6	2	4	6	1	22	
2	1	6	2	3	22	23	24	
5	5	2	2	3	25	27	29	
2	3	5	2	2	25	26	
1	5	4	3	2	25	26	
5	5	5	4	2	28	32	
2	4	1	4	2	28	32	
1	3	5	2	2	28	30	
9	3	2	2	1	33	
1	2	4	4	2	31	32	
7	4	1	4	1	34	
6	3	2	4	2	34	37	
1	3	3	2	1	35	
1	1	4	4	1	36	
4	2	2	2	1	38	
4	5	5	4	1	38	
6	5	3	3	1	40	
2	1	5	4	1	39	
3	3	2	3	1	40	
2	4	5	4	2	40	41	
6	2	4	6	1	42	
2	1	6	2	3	42	43	44	
5	5	2	2	3	45	47	49	
2	3	5	2	2	45	46	
1	5	4	3	2	45	46	
5	5	5	4	1	48	
2	4	1	4	1	48	
1	3	5	2	2	48	50	
9	3	2	2	1	51	
1	2	4	4	1	51	
7	4	1	4	1	51	
0	0	0	0	0	
